26
1 0 2
2 0 9
3 0 7
3 1 4
4 0 10
4 2 5
4 3 10
5 1 4
5 2 8
5 3 3
6 0 1
6 4 1
7 3 12
7 4 5
7 5 9
7 6 11
8 0 12
8 1 5
8 3 5
8 5 1
8 7 5
9 1 10
9 4 11
9 5 12
9 8 12
10 0 2
10 1 1
10 2 11
10 3 10
10 5 2
10 8 11
10 9 8
11 0 12
11 4 12
11 5 6
11 6 10
11 7 9
11 8 5
11 9 9
11 10 11
12 1 10
12 4 8
12 6 12
12 7 5
12 9 11
13 0 6
13 1 7
13 2 7
13 4 8
13 5 2
13 6 7
13 8 9
13 9 9
13 11 5
14 0 7
14 1 4
14 2 11
14 5 5
14 6 8
14 7 4
14 8 11
14 9 6
14 11 1
15 1 12
15 2 8
15 7 9
15 9 9
15 12 4
15 14 2
16 1 3
16 2 4
16 9 11
16 10 5
17 0 2
17 1 5
17 2 2
17 3 5
17 4 11
17 6 9
17 7 7
17 10 1
17 13 3
17 14 3
18 2 3
18 3 2
18 6 12
18 7 9
18 8 5
18 9 11
18 10 7
18 12 8
18 13 9
18 14 10
18 15 8
18 16 9
19 0 5
19 2 1
19 7 12
19 9 6
19 12 11
19 14 4
19 18 1
20 1 8
20 2 1
20 6 8
20 7 8
20 11 8
20 12 11
20 14 5
20 17 10
20 18 8
20 19 8
21 4 5
21 5 6
21 6 3
21 10 4
21 11 9
21 12 10
21 13 1
21 15 5
21 17 5
21 19 4
22 1 4
22 2 8
22 3 1
22 8 7
22 9 12
22 14 5
22 15 11
22 16 2
22 19 2
22 20 9
23 0 8
23 1 10
23 3 9
23 4 6
23 5 4
23 8 12
23 9 2
23 10 4
23 11 11
23 13 7
23 15 3
23 16 11
23 18 6
23 20 1
24 0 2
24 2 5
24 4 8
24 9 8
24 10 5
24 12 1
24 13 1
24 15 12
24 17 3
24 18 1
24 20 2
24 22 9
25 0 5
25 3 12
25 4 10
25 7 6
25 10 8
25 11 9
25 12 4
25 14 4
25 15 7
25 16 9
25 17 8
25 18 1
25 20 3
25 21 4
25 22 2
